; benchmark generated from python API
(set-info :status unknown)
(declare-fun strlen_85_64 () (_ BitVec 64))
(declare-fun args_1_8 () (_ BitVec 8))
(declare-fun strlen_83_64 () (_ BitVec 64))
(declare-fun strncmp_ret_84_32 () (_ BitVec 32))
(declare-fun strncmp_ret_86_32 () (_ BitVec 32))
(declare-fun filesize_file_0_/proc/self/loginuid_88_64 () (_ BitVec 64))
(declare-fun syscall_stub_ioctl_95_32 () (_ BitVec 32))
(declare-fun syscall_stub_newfstatat_125_64 () (_ BitVec 64))
(declare-fun syscall_stub_readlink_161_64 () (_ BitVec 64))
(declare-fun strlen_1003_64 () (_ BitVec 64))
(declare-fun mem_7fffffffffef420_175_64 () (_ BitVec 64))
(declare-fun syscall_stub_newfstatat_224_64 () (_ BitVec 64))
(declare-fun mem_7fffffffffef038_301_64 () (_ BitVec 64))
(declare-fun mem_7fffffffffeefa8_302_64 () (_ BitVec 64))
(declare-fun mem_7fffffffffeefa0_350_64 () (_ BitVec 64))
(declare-fun mem_7fffffffffef030_351_64 () (_ BitVec 64))
(declare-fun mem_7fffffffffef048_402_32 () (_ BitVec 32))
(declare-fun mem_7fffffffffeefc8_439_64 () (_ BitVec 64))
(declare-fun mem_7fffffffffef058_440_64 () (_ BitVec 64))
(declare-fun access_2311_32 () (_ BitVec 32))
(declare-fun access_3100_32 () (_ BitVec 32))
(declare-fun mem_2c_3585_264 () (_ BitVec 264))
(declare-fun strlen_3586_64 () (_ BitVec 64))
(declare-fun strlen_4939_64 () (_ BitVec 64))
(declare-fun strlen_7469_64 () (_ BitVec 64))
(declare-fun mem_7fffffffffef740_3844_248 () (_ BitVec 248))
(assert
 (let ((?x751 (bvadd (_ bv576460752303357826 64) strlen_85_64)))
 (let (($x69 (= (_ bv0 8) args_1_8)))
 (let ((?x46 (ite $x69 (_ bv576460752303357826 64) (_ bv576460752303357827 64))))
 (= ?x46 ?x751)))))
(assert
 (let ((?x101 (bvadd (_ bv576460752303357826 64) strlen_83_64)))
 (let (($x69 (= (_ bv0 8) args_1_8)))
 (let ((?x46 (ite $x69 (_ bv576460752303357826 64) (_ bv576460752303357827 64))))
 (= ?x46 ?x101)))))
(assert
 (let (($x104 (bvule (_ bv2 64) strlen_83_64)))
 (let (($x48 (= (_ bv2 64) strlen_83_64)))
 (let (($x122 (or $x48 $x104)))
 (let (($x123 (not $x122)))
 (let (($x57 (= (_ bv45 8) args_1_8)))
 (let (($x121 (not $x57)))
 (or $x121 $x123))))))))
(assert
 (= (_ bv1 32) strncmp_ret_84_32))
(assert
 (= (_ bv1 32) strncmp_ret_86_32))
(assert
 true)
(assert
 (let (($x1210 (bvsge (_ bv0 64) filesize_file_0_/proc/self/loginuid_88_64)))
 (let ((?x1217 (ite $x1210 (_ bv0 64) filesize_file_0_/proc/self/loginuid_88_64)))
 (let ((?x1236 ((_ extract 3 0) filesize_file_0_/proc/self/loginuid_88_64)))
 (let ((?x99 (ite $x1210 (_ bv0 4) ?x1236)))
 (let (($x1110 (bvule ?x99 (_ bv12 4))))
 (let ((?x1229 ((_ extract 63 4) filesize_file_0_/proc/self/loginuid_88_64)))
 (let (($x523 (= (_ bv0 60) ?x1229)))
 (let (($x516 (or $x1210 $x523)))
 (let (($x975 (and $x516 $x1110)))
 (let ((?x1169 (ite $x975 ?x1217 (_ bv12 64))))
 (= (_ bv12 64) ?x1169))))))))))))
(assert
 (let ((?x47778 ((_ extract 31 31) syscall_stub_ioctl_95_32)))
 (= (_ bv0 1) ?x47778)))
(assert
 (let (($x2449 (= (_ bv0 32) syscall_stub_ioctl_95_32)))
 (not $x2449)))
(assert
 (let ((?x68076 ((_ extract 31 0) syscall_stub_newfstatat_125_64)))
 (bvule ?x68076 (_ bv4294963200 32))))
(assert
 (= (_ bv13 64) syscall_stub_readlink_161_64))
(assert
 (let ((?x447355 (bvadd (_ bv576460752303354917 64) strlen_1003_64)))
 (let ((?x117542 ((_ extract 63 56) mem_7fffffffffef420_175_64)))
 (let (($x447349 (= (_ bv0 8) ?x117542)))
 (let ((?x115492 (ite $x447349 (_ bv576460752303354919 64) (_ bv576460752303354920 64))))
 (let ((?x117627 ((_ extract 55 48) mem_7fffffffffef420_175_64)))
 (let (($x446785 (= (_ bv0 8) ?x117627)))
 (let ((?x115455 (ite $x446785 (_ bv576460752303354918 64) ?x115492)))
 (let ((?x117606 ((_ extract 47 40) mem_7fffffffffef420_175_64)))
 (let (($x447312 (= (_ bv0 8) ?x117606)))
 (let ((?x115314 (ite $x447312 (_ bv576460752303354917 64) ?x115455)))
 (= ?x115314 ?x447355))))))))))))
(assert
 (let ((?x114646 ((_ extract 7 0) mem_7fffffffffef420_175_64)))
 (= (_ bv47 8) ?x114646)))
(assert
 (let ((?x449421 (bvadd (_ bv1 64) strlen_1003_64)))
 (let ((?x449847 ((_ extract 63 3) ?x449421)))
 (= (_ bv0 61) ?x449847))))
(assert
 (let ((?x449531 ((_ extract 2 0) strlen_1003_64)))
 (let ((?x449955 (bvadd (_ bv1 3) ?x449531)))
 (bvule ?x449955 (_ bv4 3)))))
(assert
 (let ((?x449421 (bvadd (_ bv1 64) strlen_1003_64)))
 (let (($x449083 (bvule (_ bv31 64) strlen_1003_64)))
 (let (($x449398 (bvule strlen_1003_64 (_ bv18446744073709551614 64))))
 (let (($x449830 (and $x449398 $x449083)))
 (let ((?x449914 (ite $x449830 (_ bv32 64) ?x449421)))
 (bvule (_ bv1 64) ?x449914)))))))
(assert
 (let (($x449083 (bvule (_ bv31 64) strlen_1003_64)))
 (let (($x449560 (not $x449083)))
 (let (($x449398 (bvule strlen_1003_64 (_ bv18446744073709551614 64))))
 (let (($x449556 (not $x449398)))
 (or $x449556 $x449560))))))
(assert
 (let ((?x120032 ((_ extract 31 0) syscall_stub_newfstatat_224_64)))
 (bvule ?x120032 (_ bv4294963200 32))))
(assert
 (= mem_7fffffffffeefa8_302_64 mem_7fffffffffef038_301_64))
(assert
 (= mem_7fffffffffef030_351_64 mem_7fffffffffeefa0_350_64))
(assert
 (let ((?x274831 ((_ extract 15 12) mem_7fffffffffef048_402_32)))
 (= (_ bv2 4) ?x274831)))
(assert
 (= mem_7fffffffffef058_440_64 mem_7fffffffffeefc8_439_64))
(assert
 (= (_ bv0 32) access_2311_32))
(assert
 (= (_ bv0 32) access_3100_32))
(assert
 (let ((?x821352 ((_ extract 15 8) mem_2c_3585_264)))
 (= (_ bv0 8) ?x821352)))
(assert
 (= (_ bv31 64) strlen_3586_64))
(assert
 (let ((?x821364 ((_ extract 23 16) mem_2c_3585_264)))
 (let (($x821370 (= (_ bv0 8) ?x821364)))
 (not $x821370))))
(assert
 (let ((?x821376 ((_ extract 31 24) mem_2c_3585_264)))
 (let (($x821382 (= (_ bv0 8) ?x821376)))
 (not $x821382))))
(assert
 (let ((?x821388 ((_ extract 39 32) mem_2c_3585_264)))
 (let (($x821394 (= (_ bv0 8) ?x821388)))
 (not $x821394))))
(assert
 (let ((?x821400 ((_ extract 47 40) mem_2c_3585_264)))
 (let (($x821404 (= (_ bv0 8) ?x821400)))
 (not $x821404))))
(assert
 (let ((?x821410 ((_ extract 55 48) mem_2c_3585_264)))
 (let (($x821409 (= (_ bv0 8) ?x821410)))
 (not $x821409))))
(assert
 (let ((?x821413 ((_ extract 63 56) mem_2c_3585_264)))
 (let (($x812270 (= (_ bv0 8) ?x821413)))
 (not $x812270))))
(assert
 (let ((?x821073 ((_ extract 71 64) mem_2c_3585_264)))
 (let (($x821072 (= (_ bv0 8) ?x821073)))
 (not $x821072))))
(assert
 (let ((?x821071 ((_ extract 79 72) mem_2c_3585_264)))
 (let (($x821070 (= (_ bv0 8) ?x821071)))
 (not $x821070))))
(assert
 (let ((?x821069 ((_ extract 87 80) mem_2c_3585_264)))
 (let (($x821068 (= (_ bv0 8) ?x821069)))
 (not $x821068))))
(assert
 (let ((?x821067 ((_ extract 95 88) mem_2c_3585_264)))
 (let (($x821066 (= (_ bv0 8) ?x821067)))
 (not $x821066))))
(assert
 (let ((?x821065 ((_ extract 103 96) mem_2c_3585_264)))
 (let (($x821064 (= (_ bv0 8) ?x821065)))
 (not $x821064))))
(assert
 (let ((?x821063 ((_ extract 111 104) mem_2c_3585_264)))
 (let (($x821062 (= (_ bv0 8) ?x821063)))
 (not $x821062))))
(assert
 (let ((?x821061 ((_ extract 119 112) mem_2c_3585_264)))
 (let (($x821060 (= (_ bv0 8) ?x821061)))
 (not $x821060))))
(assert
 (let ((?x821059 ((_ extract 127 120) mem_2c_3585_264)))
 (let (($x821058 (= (_ bv0 8) ?x821059)))
 (not $x821058))))
(assert
 (let ((?x821057 ((_ extract 135 128) mem_2c_3585_264)))
 (let (($x821056 (= (_ bv0 8) ?x821057)))
 (not $x821056))))
(assert
 (let ((?x821055 ((_ extract 143 136) mem_2c_3585_264)))
 (let (($x821054 (= (_ bv0 8) ?x821055)))
 (not $x821054))))
(assert
 (let ((?x821053 ((_ extract 151 144) mem_2c_3585_264)))
 (let (($x821052 (= (_ bv0 8) ?x821053)))
 (not $x821052))))
(assert
 (let ((?x821051 ((_ extract 159 152) mem_2c_3585_264)))
 (let (($x821050 (= (_ bv0 8) ?x821051)))
 (not $x821050))))
(assert
 (let ((?x821049 ((_ extract 167 160) mem_2c_3585_264)))
 (let (($x821048 (= (_ bv0 8) ?x821049)))
 (not $x821048))))
(assert
 (let ((?x821047 ((_ extract 175 168) mem_2c_3585_264)))
 (let (($x818651 (= (_ bv0 8) ?x821047)))
 (not $x818651))))
(assert
 (let ((?x818691 ((_ extract 183 176) mem_2c_3585_264)))
 (let (($x805244 (= (_ bv0 8) ?x818691)))
 (not $x805244))))
(assert
 (let ((?x799978 ((_ extract 191 184) mem_2c_3585_264)))
 (let (($x819983 (= (_ bv0 8) ?x799978)))
 (not $x819983))))
(assert
 (let ((?x804072 ((_ extract 199 192) mem_2c_3585_264)))
 (let (($x808302 (= (_ bv0 8) ?x804072)))
 (not $x808302))))
(assert
 (let ((?x810710 ((_ extract 207 200) mem_2c_3585_264)))
 (let (($x809304 (= (_ bv0 8) ?x810710)))
 (not $x809304))))
(assert
 (let ((?x804421 ((_ extract 215 208) mem_2c_3585_264)))
 (let (($x807663 (= (_ bv0 8) ?x804421)))
 (not $x807663))))
(assert
 (let ((?x800784 ((_ extract 223 216) mem_2c_3585_264)))
 (let (($x817642 (= (_ bv0 8) ?x800784)))
 (not $x817642))))
(assert
 (let ((?x815304 ((_ extract 231 224) mem_2c_3585_264)))
 (let (($x802391 (= (_ bv0 8) ?x815304)))
 (not $x802391))))
(assert
 (let ((?x799177 ((_ extract 239 232) mem_2c_3585_264)))
 (let (($x808297 (= (_ bv0 8) ?x799177)))
 (not $x808297))))
(assert
 (let ((?x802335 ((_ extract 247 240) mem_2c_3585_264)))
 (let (($x811097 (= (_ bv0 8) ?x802335)))
 (not $x811097))))
(assert
 (let ((?x816460 ((_ extract 255 248) mem_2c_3585_264)))
 (let (($x803546 (= (_ bv0 8) ?x816460)))
 (not $x803546))))
(assert
 (let ((?x819589 ((_ extract 263 256) mem_2c_3585_264)))
 (let (($x819591 (= (_ bv0 8) ?x819589)))
 (not $x819591))))
(assert
 (= (_ bv31 64) strlen_4939_64))
(assert
 (let ((?x892195 ((_ extract 7 0) mem_7fffffffffef740_3844_248)))
 (let ((?x892209 ((_ extract 15 0) mem_7fffffffffef740_3844_248)))
 (let ((?x892222 ((_ extract 23 0) mem_7fffffffffef740_3844_248)))
 (let ((?x892235 ((_ extract 31 0) mem_7fffffffffef740_3844_248)))
 (let ((?x892249 ((_ extract 39 0) mem_7fffffffffef740_3844_248)))
 (let ((?x892262 ((_ extract 47 0) mem_7fffffffffef740_3844_248)))
 (let ((?x892275 ((_ extract 55 0) mem_7fffffffffef740_3844_248)))
 (let ((?x892289 ((_ extract 63 0) mem_7fffffffffef740_3844_248)))
 (let ((?x892302 ((_ extract 71 0) mem_7fffffffffef740_3844_248)))
 (let ((?x559785 ((_ extract 79 0) mem_7fffffffffef740_3844_248)))
 (let ((?x560154 ((_ extract 87 0) mem_7fffffffffef740_3844_248)))
 (let ((?x511862 ((_ extract 95 0) mem_7fffffffffef740_3844_248)))
 (let ((?x475249 ((_ extract 103 0) mem_7fffffffffef740_3844_248)))
 (let ((?x739079 ((_ extract 111 0) mem_7fffffffffef740_3844_248)))
 (let ((?x740109 ((_ extract 119 0) mem_7fffffffffef740_3844_248)))
 (let ((?x740167 ((_ extract 127 0) mem_7fffffffffef740_3844_248)))
 (let ((?x511525 ((_ extract 135 0) mem_7fffffffffef740_3844_248)))
 (let ((?x897282 ((_ extract 143 0) mem_7fffffffffef740_3844_248)))
 (let ((?x558783 ((_ extract 151 0) mem_7fffffffffef740_3844_248)))
 (let ((?x734873 ((_ extract 159 0) mem_7fffffffffef740_3844_248)))
 (let ((?x512955 ((_ extract 167 0) mem_7fffffffffef740_3844_248)))
 (let ((?x734343 ((_ extract 175 0) mem_7fffffffffef740_3844_248)))
 (let ((?x567949 ((_ extract 183 0) mem_7fffffffffef740_3844_248)))
 (let ((?x892034 ((_ extract 191 0) mem_7fffffffffef740_3844_248)))
 (let ((?x892038 ((_ extract 199 0) mem_7fffffffffef740_3844_248)))
 (let ((?x892042 ((_ extract 207 0) mem_7fffffffffef740_3844_248)))
 (let ((?x892046 ((_ extract 215 0) mem_7fffffffffef740_3844_248)))
 (let ((?x892050 ((_ extract 223 0) mem_7fffffffffef740_3844_248)))
 (let ((?x892054 ((_ extract 231 0) mem_7fffffffffef740_3844_248)))
 (let ((?x892058 ((_ extract 239 0) mem_7fffffffffef740_3844_248)))
 (let ((?x897253 ((_ extract 263 16) mem_2c_3585_264)))
 (let (($x897459 (= (_ bv1 64) strlen_3586_64)))
 (let ((?x892060 (ite $x897459 ?x897253 mem_7fffffffffef740_3844_248)))
 (let ((?x892059 ((_ extract 247 240) ?x892060)))
 (let ((?x892057 (concat ?x892059 ?x892058)))
 (let (($x892476 (= (_ bv2 64) strlen_3586_64)))
 (let ((?x892056 (ite $x892476 ?x897253 ?x892057)))
 (let ((?x892055 ((_ extract 247 232) ?x892056)))
 (let ((?x892053 (concat ?x892055 ?x892054)))
 (let (($x897455 (= (_ bv3 64) strlen_3586_64)))
 (let ((?x892052 (ite $x897455 ?x897253 ?x892053)))
 (let ((?x892051 ((_ extract 247 224) ?x892052)))
 (let ((?x892049 (concat ?x892051 ?x892050)))
 (let (($x897452 (= (_ bv4 64) strlen_3586_64)))
 (let ((?x892048 (ite $x897452 ?x897253 ?x892049)))
 (let ((?x892047 ((_ extract 247 216) ?x892048)))
 (let ((?x892045 (concat ?x892047 ?x892046)))
 (let (($x897451 (= (_ bv5 64) strlen_3586_64)))
 (let ((?x892044 (ite $x897451 ?x897253 ?x892045)))
 (let ((?x892043 ((_ extract 247 208) ?x892044)))
 (let ((?x892041 (concat ?x892043 ?x892042)))
 (let (($x897389 (= (_ bv6 64) strlen_3586_64)))
 (let ((?x892040 (ite $x897389 ?x897253 ?x892041)))
 (let ((?x892039 ((_ extract 247 200) ?x892040)))
 (let ((?x892037 (concat ?x892039 ?x892038)))
 (let (($x897312 (= (_ bv7 64) strlen_3586_64)))
 (let ((?x892036 (ite $x897312 ?x897253 ?x892037)))
 (let ((?x892035 ((_ extract 247 192) ?x892036)))
 (let ((?x734171 (concat ?x892035 ?x892034)))
 (let (($x897322 (= (_ bv8 64) strlen_3586_64)))
 (let ((?x740427 (ite $x897322 ?x897253 ?x734171)))
 (let ((?x476772 ((_ extract 247 184) ?x740427)))
 (let ((?x480186 (concat ?x476772 ?x567949)))
 (let (($x897308 (= (_ bv9 64) strlen_3586_64)))
 (let ((?x735024 (ite $x897308 ?x897253 ?x480186)))
 (let ((?x734782 ((_ extract 247 176) ?x735024)))
 (let ((?x734735 (concat ?x734782 ?x734343)))
 (let (($x897315 (= (_ bv10 64) strlen_3586_64)))
 (let ((?x893648 (ite $x897315 ?x897253 ?x734735)))
 (let ((?x735041 ((_ extract 247 168) ?x893648)))
 (let ((?x540613 (concat ?x735041 ?x512955)))
 (let (($x897304 (= (_ bv11 64) strlen_3586_64)))
 (let ((?x560162 (ite $x897304 ?x897253 ?x540613)))
 (let ((?x277336 ((_ extract 247 160) ?x560162)))
 (let ((?x739964 (concat ?x277336 ?x734873)))
 (let (($x897311 (= (_ bv12 64) strlen_3586_64)))
 (let ((?x571294 (ite $x897311 ?x897253 ?x739964)))
 (let ((?x479789 ((_ extract 247 152) ?x571294)))
 (let ((?x738624 (concat ?x479789 ?x558783)))
 (let (($x897300 (= (_ bv13 64) strlen_3586_64)))
 (let ((?x275681 (ite $x897300 ?x897253 ?x738624)))
 (let ((?x739328 ((_ extract 247 144) ?x275681)))
 (let ((?x739688 (concat ?x739328 ?x897282)))
 (let (($x897307 (= (_ bv14 64) strlen_3586_64)))
 (let ((?x738416 (ite $x897307 ?x897253 ?x739688)))
 (let ((?x739072 ((_ extract 247 136) ?x738416)))
 (let ((?x739917 (concat ?x739072 ?x511525)))
 (let (($x897297 (= (_ bv15 64) strlen_3586_64)))
 (let ((?x514012 (ite $x897297 ?x897253 ?x739917)))
 (let ((?x496147 ((_ extract 247 128) ?x514012)))
 (let ((?x893692 (concat ?x496147 ?x740167)))
 (let (($x897303 (= (_ bv16 64) strlen_3586_64)))
 (let ((?x738922 (ite $x897303 ?x897253 ?x893692)))
 (let ((?x739075 ((_ extract 247 120) ?x738922)))
 (let ((?x567994 (concat ?x739075 ?x740109)))
 (let (($x892018 (= (_ bv17 64) strlen_3586_64)))
 (let ((?x563199 (ite $x892018 ?x897253 ?x567994)))
 (let ((?x739304 ((_ extract 247 112) ?x563199)))
 (let ((?x739468 (concat ?x739304 ?x739079)))
 (let (($x897299 (= (_ bv18 64) strlen_3586_64)))
 (let ((?x739281 (ite $x897299 ?x897253 ?x739468)))
 (let ((?x739645 ((_ extract 247 104) ?x739281)))
 (let ((?x739469 (concat ?x739645 ?x475249)))
 (let (($x897210 (= (_ bv19 64) strlen_3586_64)))
 (let ((?x480871 (ite $x897210 ?x897253 ?x739469)))
 (let ((?x479765 ((_ extract 247 96) ?x480871)))
 (let ((?x511849 (concat ?x479765 ?x511862)))
 (let (($x897295 (= (_ bv20 64) strlen_3586_64)))
 (let ((?x567893 (ite $x897295 ?x897253 ?x511849)))
 (let ((?x890822 ((_ extract 247 88) ?x567893)))
 (let ((?x561785 (concat ?x890822 ?x560154)))
 (let (($x892663 (= (_ bv21 64) strlen_3586_64)))
 (let ((?x559260 (ite $x892663 ?x897253 ?x561785)))
 (let ((?x477608 ((_ extract 247 80) ?x559260)))
 (let ((?x563546 (concat ?x477608 ?x559785)))
 (let (($x897292 (= (_ bv22 64) strlen_3586_64)))
 (let ((?x737853 (ite $x897292 ?x897253 ?x563546)))
 (let ((?x735006 ((_ extract 247 72) ?x737853)))
 (let ((?x892299 (concat ?x735006 ?x892302)))
 (let (($x892686 (= (_ bv23 64) strlen_3586_64)))
 (let ((?x892295 (ite $x892686 ?x897253 ?x892299)))
 (let ((?x892292 ((_ extract 247 64) ?x892295)))
 (let ((?x892285 (concat ?x892292 ?x892289)))
 (let (($x897288 (= (_ bv24 64) strlen_3586_64)))
 (let ((?x892282 (ite $x897288 ?x897253 ?x892285)))
 (let ((?x892279 ((_ extract 247 56) ?x892282)))
 (let ((?x892272 (concat ?x892279 ?x892275)))
 (let (($x897240 (= (_ bv25 64) strlen_3586_64)))
 (let ((?x892269 (ite $x897240 ?x897253 ?x892272)))
 (let ((?x892265 ((_ extract 247 48) ?x892269)))
 (let ((?x892259 (concat ?x892265 ?x892262)))
 (let (($x897284 (= (_ bv26 64) strlen_3586_64)))
 (let ((?x892255 (ite $x897284 ?x897253 ?x892259)))
 (let ((?x892252 ((_ extract 247 40) ?x892255)))
 (let ((?x892245 (concat ?x892252 ?x892249)))
 (let (($x892722 (= (_ bv27 64) strlen_3586_64)))
 (let ((?x892242 (ite $x892722 ?x897253 ?x892245)))
 (let ((?x892239 ((_ extract 247 32) ?x892242)))
 (let ((?x892232 (concat ?x892239 ?x892235)))
 (let (($x897242 (= (_ bv28 64) strlen_3586_64)))
 (let ((?x892229 (ite $x897242 ?x897253 ?x892232)))
 (let ((?x892225 ((_ extract 247 24) ?x892229)))
 (let ((?x892219 (concat ?x892225 ?x892222)))
 (let (($x897255 (= (_ bv29 64) strlen_3586_64)))
 (let ((?x892215 (ite $x897255 ?x897253 ?x892219)))
 (let ((?x892212 ((_ extract 247 16) ?x892215)))
 (let ((?x892205 (concat ?x892212 ?x892209)))
 (let (($x897236 (= (_ bv30 64) strlen_3586_64)))
 (let ((?x892202 (ite $x897236 ?x897253 ?x892205)))
 (let ((?x892199 ((_ extract 247 8) ?x892202)))
 (let ((?x892192 (concat ?x892199 ?x892195)))
 (let (($x897257 (= (_ bv31 64) strlen_3586_64)))
 (let ((?x892189 (ite $x897257 ?x897253 ?x892192)))
 (let ((?x1261306 ((_ extract 7 0) ?x892189)))
 (let (($x1261913 (= (_ bv0 8) ?x1261306)))
 (let ((?x735059 (ite $x1261913 (_ bv576460752303355742 64) (_ bv576460752303355743 64))))
 (let ((?x1262015 ((_ extract 15 8) ?x892189)))
 (let (($x894900 (= (_ bv0 8) ?x1262015)))
 (let ((?x1261785 (ite $x894900 (_ bv576460752303355741 64) ?x735059)))
 (let ((?x1261922 ((_ extract 23 16) ?x892189)))
 (let (($x892007 (= (_ bv0 8) ?x1261922)))
 (let ((?x739391 (ite $x892007 (_ bv576460752303355740 64) ?x1261785)))
 (let ((?x1261918 ((_ extract 31 24) ?x892189)))
 (let (($x740100 (= (_ bv0 8) ?x1261918)))
 (let ((?x560042 (ite $x740100 (_ bv576460752303355739 64) ?x739391)))
 (let ((?x1261709 ((_ extract 39 32) ?x892189)))
 (let (($x568051 (= (_ bv0 8) ?x1261709)))
 (let ((?x739937 (ite $x568051 (_ bv576460752303355738 64) ?x560042)))
 (let ((?x1261672 ((_ extract 47 40) ?x892189)))
 (let (($x740263 (= (_ bv0 8) ?x1261672)))
 (let ((?x738699 (ite $x740263 (_ bv576460752303355737 64) ?x739937)))
 (let ((?x1261749 ((_ extract 55 48) ?x892189)))
 (let (($x739704 (= (_ bv0 8) ?x1261749)))
 (let ((?x734028 (ite $x739704 (_ bv576460752303355736 64) ?x738699)))
 (let ((?x561005 ((_ extract 63 56) ?x892189)))
 (let (($x739633 (= (_ bv0 8) ?x561005)))
 (let ((?x740004 (ite $x739633 (_ bv576460752303355735 64) ?x734028)))
 (let ((?x1261780 ((_ extract 71 64) ?x892189)))
 (let (($x739334 (= (_ bv0 8) ?x1261780)))
 (let ((?x892179 (ite $x739334 (_ bv576460752303355734 64) ?x740004)))
 (let ((?x1261748 ((_ extract 79 72) ?x892189)))
 (let (($x739198 (= (_ bv0 8) ?x1261748)))
 (let ((?x892175 (ite $x739198 (_ bv576460752303355733 64) ?x892179)))
 (let ((?x1261679 ((_ extract 87 80) ?x892189)))
 (let (($x739004 (= (_ bv0 8) ?x1261679)))
 (let ((?x892172 (ite $x739004 (_ bv576460752303355732 64) ?x892175)))
 (let ((?x1261980 ((_ extract 95 88) ?x892189)))
 (let (($x738790 (= (_ bv0 8) ?x1261980)))
 (let ((?x892169 (ite $x738790 (_ bv576460752303355731 64) ?x892172)))
 (let ((?x735044 ((_ extract 103 96) ?x892189)))
 (let (($x738772 (= (_ bv0 8) ?x735044)))
 (let ((?x892165 (ite $x738772 (_ bv576460752303355730 64) ?x892169)))
 (let ((?x1261854 ((_ extract 111 104) ?x892189)))
 (let (($x738360 (= (_ bv0 8) ?x1261854)))
 (let ((?x892162 (ite $x738360 (_ bv576460752303355729 64) ?x892165)))
 (let ((?x1261688 ((_ extract 119 112) ?x892189)))
 (let (($x735585 (= (_ bv0 8) ?x1261688)))
 (let ((?x892159 (ite $x735585 (_ bv576460752303355728 64) ?x892162)))
 (let ((?x1261755 ((_ extract 127 120) ?x892189)))
 (let (($x734048 (= (_ bv0 8) ?x1261755)))
 (let ((?x892155 (ite $x734048 (_ bv576460752303355727 64) ?x892159)))
 (let ((?x439690 ((_ extract 135 128) ?x892189)))
 (let (($x691221 (= (_ bv0 8) ?x439690)))
 (let ((?x892152 (ite $x691221 (_ bv576460752303355726 64) ?x892155)))
 (let ((?x1261685 ((_ extract 143 136) ?x892189)))
 (let (($x690990 (= (_ bv0 8) ?x1261685)))
 (let ((?x892149 (ite $x690990 (_ bv576460752303355725 64) ?x892152)))
 (let ((?x1261902 ((_ extract 151 144) ?x892189)))
 (let (($x644786 (= (_ bv0 8) ?x1261902)))
 (let ((?x892145 (ite $x644786 (_ bv576460752303355724 64) ?x892149)))
 (let ((?x1261769 ((_ extract 159 152) ?x892189)))
 (let (($x567931 (= (_ bv0 8) ?x1261769)))
 (let ((?x892142 (ite $x567931 (_ bv576460752303355723 64) ?x892145)))
 (let ((?x1261847 ((_ extract 167 160) ?x892189)))
 (let (($x562980 (= (_ bv0 8) ?x1261847)))
 (let ((?x892139 (ite $x562980 (_ bv576460752303355722 64) ?x892142)))
 (let ((?x1261734 ((_ extract 175 168) ?x892189)))
 (let (($x560621 (= (_ bv0 8) ?x1261734)))
 (let ((?x892135 (ite $x560621 (_ bv576460752303355721 64) ?x892139)))
 (let ((?x1261778 ((_ extract 183 176) ?x892189)))
 (let (($x560150 (= (_ bv0 8) ?x1261778)))
 (let ((?x892132 (ite $x560150 (_ bv576460752303355720 64) ?x892135)))
 (let ((?x1261754 ((_ extract 191 184) ?x892189)))
 (let (($x559163 (= (_ bv0 8) ?x1261754)))
 (let ((?x892129 (ite $x559163 (_ bv576460752303355719 64) ?x892132)))
 (let ((?x1261781 ((_ extract 199 192) ?x892189)))
 (let (($x480538 (= (_ bv0 8) ?x1261781)))
 (let ((?x892125 (ite $x480538 (_ bv576460752303355718 64) ?x892129)))
 (let ((?x440476 ((_ extract 207 200) ?x892189)))
 (let (($x478793 (= (_ bv0 8) ?x440476)))
 (let ((?x892122 (ite $x478793 (_ bv576460752303355717 64) ?x892125)))
 (let ((?x1261797 ((_ extract 215 208) ?x892189)))
 (let (($x478641 (= (_ bv0 8) ?x1261797)))
 (let ((?x892119 (ite $x478641 (_ bv576460752303355716 64) ?x892122)))
 (let ((?x1261686 ((_ extract 223 216) ?x892189)))
 (let (($x477428 (= (_ bv0 8) ?x1261686)))
 (let ((?x892115 (ite $x477428 (_ bv576460752303355715 64) ?x892119)))
 (let ((?x1261858 ((_ extract 231 224) ?x892189)))
 (let (($x476722 (= (_ bv0 8) ?x1261858)))
 (let ((?x892112 (ite $x476722 (_ bv576460752303355714 64) ?x892115)))
 (let ((?x1261796 ((_ extract 239 232) ?x892189)))
 (let (($x474275 (= (_ bv0 8) ?x1261796)))
 (let ((?x892109 (ite $x474275 (_ bv576460752303355713 64) ?x892112)))
 (let ((?x892185 ((_ extract 247 240) ?x892189)))
 (let (($x734625 (= (_ bv0 8) ?x892185)))
 (let ((?x892105 (ite $x734625 (_ bv576460752303355712 64) ?x892109)))
 (let ((?x892101 (bvsub ?x892105 (_ bv576460752303355712 64))))
 (= ?x892101 strlen_7469_64)))))))))))))))))))))))))))))))))))))))))))))))))))))))))))))))))))))))))))))))))))))))))))))))))))))))))))))))))))))))))))))))))))))))))))))))))))))))))))))))))))))))))))))))))))))))))))))))))))))))))))))))))))))))))))))))))))))))))))))))))))))))))
(minimize mem_7fffffffffeefa0_350_64)
(minimize strlen_83_64)
(maximize mem_7fffffffffef048_402_32)
(minimize mem_7fffffffffeefc8_439_64)
(minimize strlen_4939_64)
(maximize strncmp_ret_84_32)
(minimize mem_7fffffffffef030_351_64)
(maximize syscall_stub_newfstatat_224_64)
(maximize syscall_stub_readlink_161_64)
(minimize mem_7fffffffffeefa8_302_64)
(maximize mem_7fffffffffeefc8_439_64)
(minimize mem_2c_3585_264)
(maximize strncmp_ret_86_32)
(minimize strncmp_ret_86_32)
(minimize mem_7fffffffffef038_301_64)
(minimize strlen_7469_64)
(minimize mem_7fffffffffef048_402_32)
(maximize strlen_7469_64)
(maximize mem_7fffffffffef420_175_64)
(maximize strlen_4939_64)
(maximize mem_7fffffffffeefa8_302_64)
(minimize access_2311_32)
(minimize strlen_3586_64)
(maximize strlen_83_64)
(minimize strncmp_ret_84_32)
(maximize mem_7fffffffffef030_351_64)
(minimize syscall_stub_ioctl_95_32)
(minimize access_3100_32)
(maximize mem_7fffffffffef740_3844_248)
(maximize mem_7fffffffffef058_440_64)
(minimize filesize_file_0_/proc/self/loginuid_88_64)
(maximize strlen_1003_64)
(maximize strlen_3586_64)
(minimize syscall_stub_newfstatat_125_64)
(maximize strlen_85_64)
(minimize mem_7fffffffffef058_440_64)
(maximize syscall_stub_newfstatat_125_64)
(minimize mem_7fffffffffef420_175_64)
(maximize access_3100_32)
(maximize filesize_file_0_/proc/self/loginuid_88_64)
(maximize syscall_stub_ioctl_95_32)
(maximize mem_7fffffffffef038_301_64)
(minimize mem_7fffffffffef740_3844_248)
(maximize access_2311_32)
(maximize mem_7fffffffffeefa0_350_64)
(maximize args_1_8)
(minimize args_1_8)
(minimize syscall_stub_readlink_161_64)
(minimize strlen_85_64)
(maximize mem_2c_3585_264)
(check-sat)
(get-objectives)
